; benchmark generated from python API
(set-info :status unknown)
(declare-fun x_epoch () Int)
(declare-fun x_plus_epoch () Int)
(declare-fun x_plus_month () Int)
(declare-fun x_plus_year () Int)
(declare-fun x_plus_day () Int)
(declare-fun x_plus_1_epoch () Int)
(assert
 (>= x_epoch (- 36525)))
(assert
 (<= x_epoch 36523))
(assert
 (>= x_epoch 8341))
(assert
 (>= x_plus_epoch (- 36525)))
(assert
 (<= x_plus_epoch 36523))
(assert
 (let (($x996 (= x_plus_month 11)))
 (let (($x749 (= x_plus_month 9)))
 (let (($x997 (= x_plus_month 6)))
 (let (($x959 (= x_plus_month 4)))
 (let ((?x848 (ite (or $x959 $x997 $x749 $x996) 30 31)))
 (let (($x672 (= (mod x_plus_year 400) 0)))
 (let (($x795 (= (mod x_plus_year 4) 0)))
 (let (($x680 (or (and $x795 (and (distinct (mod x_plus_year 100) 0) true)) $x672)))
 (let (($x788 (= x_plus_month 2)))
 (let (($x600 (>= x_plus_day 1)))
 (let (($x921 (<= x_plus_month 12)))
 (let (($x791 (>= x_plus_month 1)))
 (let (($x924 (<= x_plus_year 2100)))
 (let (($x927 (>= x_plus_year 1900)))
 (and $x927 $x924 $x791 $x921 $x600 (<= x_plus_day (ite $x788 (ite $x680 29 28) ?x848))))))))))))))))))
(assert
 (let (($x672 (= (mod x_plus_year 400) 0)))
 (let (($x795 (= (mod x_plus_year 4) 0)))
 (let (($x680 (or (and $x795 (and (distinct (mod x_plus_year 100) 0) true)) $x672)))
 (let ((?x827 (ite (= 2 x_plus_month) (ite $x680 31 31) (ite (= 1 x_plus_month) (ite $x680 0 0) 0))))
 (let ((?x847 (ite (= 4 x_plus_month) (ite $x680 91 90) (ite (= 3 x_plus_month) (ite $x680 60 59) ?x827))))
 (let ((?x612 (ite (= 6 x_plus_month) (ite $x680 152 151) (ite (= 5 x_plus_month) (ite $x680 121 120) ?x847))))
 (let ((?x768 (ite (= 8 x_plus_month) (ite $x680 213 212) (ite (= 7 x_plus_month) (ite $x680 182 181) ?x612))))
 (let ((?x753 (ite (= 10 x_plus_month) (ite $x680 274 273) (ite (= 9 x_plus_month) (ite $x680 244 243) ?x768))))
 (let ((?x963 (ite (= 12 x_plus_month) (ite $x680 335 334) (ite (= 11 x_plus_month) (ite $x680 305 304) ?x753))))
 (let ((?x826 (+ (* 365 (- x_plus_year 1)) (div (- x_plus_year 1) 4))))
 (let ((?x474 (+ (- ?x826 (div (- x_plus_year 1) 100)) (div (- x_plus_year 1) 400))))
 (= x_plus_epoch (- (+ (+ ?x474 ?x963) (- x_plus_day 1)) 730179))))))))))))))
(assert
 (let ((?x404 (+ x_epoch 730179)))
 (let ((?x556 (mod ?x404 146097)))
 (let ((?x431 (div ?x556 36524)))
 (let ((?x789 (ite (<= 4 ?x431) 3 ?x431)))
 (let ((?x802 (- ?x556 (* ?x789 36524))))
 (let ((?x734 (mod ?x802 1461)))
 (let ((?x639 (div ?x734 365)))
 (let ((?x569 (ite (<= 4 ?x639) 3 ?x639)))
 (let ((?x726 (+ (+ (* (div ?x404 146097) 400) (* ?x789 100)) (* (div ?x802 1461) 4))))
 (let ((?x611 (+ (+ ?x726 ?x569) 1)))
 (let (($x427 (or (and (= (mod ?x611 4) 0) (and (distinct (mod ?x611 100) 0) true)) (= (mod ?x611 400) 0))))
 (let ((?x742 (- ?x734 (* ?x569 365))))
 (let ((?x536 (ite $x427 31 31)))
 (let (($x717 (>= ?x742 ?x536)))
 (let ((?x565 (ite $x717 (+ (- ?x742 ?x536) 1) (+ (- ?x742 (ite $x427 0 0)) 1))))
 (let ((?x520 (ite $x427 60 59)))
 (let (($x678 (>= ?x742 ?x520)))
 (let ((?x618 (ite $x427 91 90)))
 (let (($x705 (>= ?x742 ?x618)))
 (let ((?x542 (ite $x705 (+ (- ?x742 ?x618) 1) (ite $x678 (+ (- ?x742 ?x520) 1) ?x565))))
 (let ((?x808 (ite $x427 121 120)))
 (let (($x733 (>= ?x742 ?x808)))
 (let ((?x663 (ite $x427 152 151)))
 (let (($x585 (>= ?x742 ?x663)))
 (let ((?x719 (ite $x585 (+ (- ?x742 ?x663) 1) (ite $x733 (+ (- ?x742 ?x808) 1) ?x542))))
 (let ((?x655 (ite $x427 182 181)))
 (let (($x613 (>= ?x742 ?x655)))
 (let ((?x812 (ite $x427 213 212)))
 (let (($x583 (>= ?x742 ?x812)))
 (let ((?x478 (ite $x583 (+ (- ?x742 ?x812) 1) (ite $x613 (+ (- ?x742 ?x655) 1) ?x719))))
 (let ((?x627 (ite $x427 244 243)))
 (let (($x610 (>= ?x742 ?x627)))
 (let ((?x657 (ite $x427 274 273)))
 (let (($x730 (>= ?x742 ?x657)))
 (let ((?x449 (ite $x730 (+ (- ?x742 ?x657) 1) (ite $x610 (+ (- ?x742 ?x627) 1) ?x478))))
 (let ((?x574 (ite $x427 305 304)))
 (let (($x633 (>= ?x742 ?x574)))
 (let ((?x626 (ite $x427 335 334)))
 (let (($x715 (>= ?x742 ?x626)))
 (let ((?x819 (ite $x715 (+ (- ?x742 ?x626) 1) (ite $x633 (+ (- ?x742 ?x574) 1) ?x449))))
 (let ((?x723 (* 0 12)))
 (let ((?x701 (+ ?x723 1)))
 (let ((?x704 (ite $x733 5 (ite $x705 4 (ite $x678 3 (ite $x717 2 1))))))
 (let ((?x731 (ite $x610 9 (ite $x583 8 (ite $x613 7 (ite $x585 6 ?x704))))))
 (let ((?x811 (ite $x715 12 (ite $x633 11 (ite $x730 10 ?x731)))))
 (let ((?x440 (+ ?x811 ?x701)))
 (let ((?x441 (- ?x440 1)))
 (let ((?x443 (+ (mod ?x441 12) 1)))
 (let ((?x926 (ite (or (= ?x443 4) (= ?x443 6) (= ?x443 9) (= ?x443 11)) 30 31)))
 (let (($x883 (and (= (mod (+ ?x611 (+ 0 (div ?x441 12))) 4) 0) (and (distinct (mod (+ ?x611 (+ 0 (div ?x441 12))) 100) 0) true))))
 (let (($x855 (or $x883 (= (mod (+ ?x611 (+ 0 (div ?x441 12))) 400) 0))))
 (let ((?x929 (ite (= ?x443 2) (ite $x855 29 28) ?x926)))
 (let ((?x888 (ite (> 1 ?x819) 1 (ite (> ?x819 ?x929) ?x929 ?x819))))
 (let ((?x882 (ite (> 1 ?x888) 1 (ite (> ?x888 ?x929) ?x929 ?x888))))
 (let ((?x685 (ite (= 2 ?x443) (ite $x855 31 31) (ite (= 1 ?x443) (ite $x855 0 0) 0))))
 (let ((?x642 (ite (= 4 ?x443) (ite $x855 91 90) (ite (= 3 ?x443) (ite $x855 60 59) ?x685))))
 (let ((?x650 (ite (= 6 ?x443) (ite $x855 152 151) (ite (= 5 ?x443) (ite $x855 121 120) ?x642))))
 (let ((?x690 (ite (= 8 ?x443) (ite $x855 213 212) (ite (= 7 ?x443) (ite $x855 182 181) ?x650))))
 (let ((?x695 (ite (= 10 ?x443) (ite $x855 274 273) (ite (= 9 ?x443) (ite $x855 244 243) ?x690))))
 (let ((?x860 (ite (= 12 ?x443) (ite $x855 335 334) (ite (= 11 ?x443) (ite $x855 305 304) ?x695))))
 (let ((?x878 (+ (* 365 (- (+ ?x611 (+ 0 (div ?x441 12))) 1)) (div (- (+ ?x611 (+ 0 (div ?x441 12))) 1) 4))))
 (let ((?x691 (+ (- ?x878 (div (- (+ ?x611 (+ 0 (div ?x441 12))) 1) 100)) (div (- (+ ?x611 (+ 0 (div ?x441 12))) 1) 400))))
 (let ((?x857 (+ (+ (- (+ (+ ?x691 ?x860) (- ?x882 1)) 730179) 0) 730179)))
 (let ((?x869 (mod ?x857 146097)))
 (let ((?x871 (div ?x869 36524)))
 (let ((?x875 (ite (<= 4 ?x871) 3 ?x871)))
 (let ((?x879 (- ?x869 (* ?x875 36524))))
 (let ((?x553 (mod ?x879 1461)))
 (let ((?x922 (div ?x553 365)))
 (let ((?x919 (ite (<= 4 ?x922) 3 ?x922)))
 (let ((?x910 (+ (+ (* (div ?x857 146097) 400) (* ?x875 100)) (* (div ?x879 1461) 4))))
 (let ((?x892 (+ (+ ?x910 ?x919) 1)))
 (let ((?x816 (+ 0 (div ?x441 12))))
 (let ((?x444 (+ ?x611 ?x816)))
 (let (($x591 (= 0 0)))
 (let ((?x664 (ite $x591 ?x444 ?x892)))
 (= x_plus_year ?x664))))))))))))))))))))))))))))))))))))))))))))))))))))))))))))))))))))))))))))))
(assert
 (let ((?x404 (+ x_epoch 730179)))
 (let ((?x556 (mod ?x404 146097)))
 (let ((?x431 (div ?x556 36524)))
 (let ((?x789 (ite (<= 4 ?x431) 3 ?x431)))
 (let ((?x802 (- ?x556 (* ?x789 36524))))
 (let ((?x734 (mod ?x802 1461)))
 (let ((?x639 (div ?x734 365)))
 (let ((?x569 (ite (<= 4 ?x639) 3 ?x639)))
 (let ((?x726 (+ (+ (* (div ?x404 146097) 400) (* ?x789 100)) (* (div ?x802 1461) 4))))
 (let ((?x611 (+ (+ ?x726 ?x569) 1)))
 (let (($x427 (or (and (= (mod ?x611 4) 0) (and (distinct (mod ?x611 100) 0) true)) (= (mod ?x611 400) 0))))
 (let ((?x742 (- ?x734 (* ?x569 365))))
 (let ((?x536 (ite $x427 31 31)))
 (let (($x717 (>= ?x742 ?x536)))
 (let ((?x565 (ite $x717 (+ (- ?x742 ?x536) 1) (+ (- ?x742 (ite $x427 0 0)) 1))))
 (let ((?x520 (ite $x427 60 59)))
 (let (($x678 (>= ?x742 ?x520)))
 (let ((?x618 (ite $x427 91 90)))
 (let (($x705 (>= ?x742 ?x618)))
 (let ((?x542 (ite $x705 (+ (- ?x742 ?x618) 1) (ite $x678 (+ (- ?x742 ?x520) 1) ?x565))))
 (let ((?x808 (ite $x427 121 120)))
 (let (($x733 (>= ?x742 ?x808)))
 (let ((?x663 (ite $x427 152 151)))
 (let (($x585 (>= ?x742 ?x663)))
 (let ((?x719 (ite $x585 (+ (- ?x742 ?x663) 1) (ite $x733 (+ (- ?x742 ?x808) 1) ?x542))))
 (let ((?x655 (ite $x427 182 181)))
 (let (($x613 (>= ?x742 ?x655)))
 (let ((?x812 (ite $x427 213 212)))
 (let (($x583 (>= ?x742 ?x812)))
 (let ((?x478 (ite $x583 (+ (- ?x742 ?x812) 1) (ite $x613 (+ (- ?x742 ?x655) 1) ?x719))))
 (let ((?x627 (ite $x427 244 243)))
 (let (($x610 (>= ?x742 ?x627)))
 (let ((?x657 (ite $x427 274 273)))
 (let (($x730 (>= ?x742 ?x657)))
 (let ((?x449 (ite $x730 (+ (- ?x742 ?x657) 1) (ite $x610 (+ (- ?x742 ?x627) 1) ?x478))))
 (let ((?x574 (ite $x427 305 304)))
 (let (($x633 (>= ?x742 ?x574)))
 (let ((?x626 (ite $x427 335 334)))
 (let (($x715 (>= ?x742 ?x626)))
 (let ((?x819 (ite $x715 (+ (- ?x742 ?x626) 1) (ite $x633 (+ (- ?x742 ?x574) 1) ?x449))))
 (let ((?x723 (* 0 12)))
 (let ((?x701 (+ ?x723 1)))
 (let ((?x704 (ite $x733 5 (ite $x705 4 (ite $x678 3 (ite $x717 2 1))))))
 (let ((?x731 (ite $x610 9 (ite $x583 8 (ite $x613 7 (ite $x585 6 ?x704))))))
 (let ((?x811 (ite $x715 12 (ite $x633 11 (ite $x730 10 ?x731)))))
 (let ((?x440 (+ ?x811 ?x701)))
 (let ((?x441 (- ?x440 1)))
 (let ((?x443 (+ (mod ?x441 12) 1)))
 (let ((?x926 (ite (or (= ?x443 4) (= ?x443 6) (= ?x443 9) (= ?x443 11)) 30 31)))
 (let (($x883 (and (= (mod (+ ?x611 (+ 0 (div ?x441 12))) 4) 0) (and (distinct (mod (+ ?x611 (+ 0 (div ?x441 12))) 100) 0) true))))
 (let (($x855 (or $x883 (= (mod (+ ?x611 (+ 0 (div ?x441 12))) 400) 0))))
 (let ((?x929 (ite (= ?x443 2) (ite $x855 29 28) ?x926)))
 (let ((?x888 (ite (> 1 ?x819) 1 (ite (> ?x819 ?x929) ?x929 ?x819))))
 (let ((?x882 (ite (> 1 ?x888) 1 (ite (> ?x888 ?x929) ?x929 ?x888))))
 (let ((?x685 (ite (= 2 ?x443) (ite $x855 31 31) (ite (= 1 ?x443) (ite $x855 0 0) 0))))
 (let ((?x642 (ite (= 4 ?x443) (ite $x855 91 90) (ite (= 3 ?x443) (ite $x855 60 59) ?x685))))
 (let ((?x650 (ite (= 6 ?x443) (ite $x855 152 151) (ite (= 5 ?x443) (ite $x855 121 120) ?x642))))
 (let ((?x690 (ite (= 8 ?x443) (ite $x855 213 212) (ite (= 7 ?x443) (ite $x855 182 181) ?x650))))
 (let ((?x695 (ite (= 10 ?x443) (ite $x855 274 273) (ite (= 9 ?x443) (ite $x855 244 243) ?x690))))
 (let ((?x860 (ite (= 12 ?x443) (ite $x855 335 334) (ite (= 11 ?x443) (ite $x855 305 304) ?x695))))
 (let ((?x878 (+ (* 365 (- (+ ?x611 (+ 0 (div ?x441 12))) 1)) (div (- (+ ?x611 (+ 0 (div ?x441 12))) 1) 4))))
 (let ((?x691 (+ (- ?x878 (div (- (+ ?x611 (+ 0 (div ?x441 12))) 1) 100)) (div (- (+ ?x611 (+ 0 (div ?x441 12))) 1) 400))))
 (let ((?x857 (+ (+ (- (+ (+ ?x691 ?x860) (- ?x882 1)) 730179) 0) 730179)))
 (let ((?x869 (mod ?x857 146097)))
 (let ((?x871 (div ?x869 36524)))
 (let ((?x875 (ite (<= 4 ?x871) 3 ?x871)))
 (let ((?x879 (- ?x869 (* ?x875 36524))))
 (let ((?x553 (mod ?x879 1461)))
 (let ((?x922 (div ?x553 365)))
 (let ((?x919 (ite (<= 4 ?x922) 3 ?x922)))
 (let ((?x910 (+ (+ (* (div ?x857 146097) 400) (* ?x875 100)) (* (div ?x879 1461) 4))))
 (let ((?x892 (+ (+ ?x910 ?x919) 1)))
 (let (($x901 (or (and (= (mod ?x892 4) 0) (and (distinct (mod ?x892 100) 0) true)) (= (mod ?x892 400) 0))))
 (let ((?x890 (ite $x901 31 31)))
 (let ((?x916 (- ?x553 (* ?x919 365))))
 (let (($x471 (>= ?x916 ?x890)))
 (let ((?x891 (ite $x901 60 59)))
 (let (($x469 (>= ?x916 ?x891)))
 (let ((?x608 (ite $x901 91 90)))
 (let (($x499 (>= ?x916 ?x608)))
 (let ((?x806 (ite $x901 121 120)))
 (let (($x496 (>= ?x916 ?x806)))
 (let ((?x481 (ite $x496 5 (ite $x499 4 (ite $x469 3 (ite $x471 2 1))))))
 (let ((?x615 (ite $x901 152 151)))
 (let (($x495 (>= ?x916 ?x615)))
 (let ((?x447 (ite $x901 182 181)))
 (let (($x494 (>= ?x916 ?x447)))
 (let ((?x448 (ite $x901 213 212)))
 (let (($x498 (>= ?x916 ?x448)))
 (let ((?x454 (ite $x901 244 243)))
 (let (($x497 (>= ?x916 ?x454)))
 (let ((?x821 (ite $x497 9 (ite $x498 8 (ite $x494 7 (ite $x495 6 ?x481))))))
 (let ((?x455 (ite $x901 274 273)))
 (let (($x505 (>= ?x916 ?x455)))
 (let ((?x464 (ite $x901 305 304)))
 (let (($x504 (>= ?x916 ?x464)))
 (let ((?x456 (ite $x901 335 334)))
 (let (($x500 (>= ?x916 ?x456)))
 (let (($x591 (= 0 0)))
 (let ((?x933 (ite $x591 ?x443 (ite $x500 12 (ite $x504 11 (ite $x505 10 ?x821))))))
 (= x_plus_month ?x933))))))))))))))))))))))))))))))))))))))))))))))))))))))))))))))))))))))))))))))))))))))))))))))))))))))
(assert
 (let ((?x404 (+ x_epoch 730179)))
 (let ((?x556 (mod ?x404 146097)))
 (let ((?x431 (div ?x556 36524)))
 (let ((?x789 (ite (<= 4 ?x431) 3 ?x431)))
 (let ((?x802 (- ?x556 (* ?x789 36524))))
 (let ((?x734 (mod ?x802 1461)))
 (let ((?x639 (div ?x734 365)))
 (let ((?x569 (ite (<= 4 ?x639) 3 ?x639)))
 (let ((?x726 (+ (+ (* (div ?x404 146097) 400) (* ?x789 100)) (* (div ?x802 1461) 4))))
 (let ((?x611 (+ (+ ?x726 ?x569) 1)))
 (let (($x427 (or (and (= (mod ?x611 4) 0) (and (distinct (mod ?x611 100) 0) true)) (= (mod ?x611 400) 0))))
 (let ((?x742 (- ?x734 (* ?x569 365))))
 (let ((?x536 (ite $x427 31 31)))
 (let (($x717 (>= ?x742 ?x536)))
 (let ((?x565 (ite $x717 (+ (- ?x742 ?x536) 1) (+ (- ?x742 (ite $x427 0 0)) 1))))
 (let ((?x520 (ite $x427 60 59)))
 (let (($x678 (>= ?x742 ?x520)))
 (let ((?x618 (ite $x427 91 90)))
 (let (($x705 (>= ?x742 ?x618)))
 (let ((?x542 (ite $x705 (+ (- ?x742 ?x618) 1) (ite $x678 (+ (- ?x742 ?x520) 1) ?x565))))
 (let ((?x808 (ite $x427 121 120)))
 (let (($x733 (>= ?x742 ?x808)))
 (let ((?x663 (ite $x427 152 151)))
 (let (($x585 (>= ?x742 ?x663)))
 (let ((?x719 (ite $x585 (+ (- ?x742 ?x663) 1) (ite $x733 (+ (- ?x742 ?x808) 1) ?x542))))
 (let ((?x655 (ite $x427 182 181)))
 (let (($x613 (>= ?x742 ?x655)))
 (let ((?x812 (ite $x427 213 212)))
 (let (($x583 (>= ?x742 ?x812)))
 (let ((?x478 (ite $x583 (+ (- ?x742 ?x812) 1) (ite $x613 (+ (- ?x742 ?x655) 1) ?x719))))
 (let ((?x627 (ite $x427 244 243)))
 (let (($x610 (>= ?x742 ?x627)))
 (let ((?x657 (ite $x427 274 273)))
 (let (($x730 (>= ?x742 ?x657)))
 (let ((?x449 (ite $x730 (+ (- ?x742 ?x657) 1) (ite $x610 (+ (- ?x742 ?x627) 1) ?x478))))
 (let ((?x574 (ite $x427 305 304)))
 (let (($x633 (>= ?x742 ?x574)))
 (let ((?x626 (ite $x427 335 334)))
 (let (($x715 (>= ?x742 ?x626)))
 (let ((?x819 (ite $x715 (+ (- ?x742 ?x626) 1) (ite $x633 (+ (- ?x742 ?x574) 1) ?x449))))
 (let ((?x723 (* 0 12)))
 (let ((?x701 (+ ?x723 1)))
 (let ((?x704 (ite $x733 5 (ite $x705 4 (ite $x678 3 (ite $x717 2 1))))))
 (let ((?x731 (ite $x610 9 (ite $x583 8 (ite $x613 7 (ite $x585 6 ?x704))))))
 (let ((?x811 (ite $x715 12 (ite $x633 11 (ite $x730 10 ?x731)))))
 (let ((?x440 (+ ?x811 ?x701)))
 (let ((?x441 (- ?x440 1)))
 (let ((?x443 (+ (mod ?x441 12) 1)))
 (let ((?x926 (ite (or (= ?x443 4) (= ?x443 6) (= ?x443 9) (= ?x443 11)) 30 31)))
 (let (($x883 (and (= (mod (+ ?x611 (+ 0 (div ?x441 12))) 4) 0) (and (distinct (mod (+ ?x611 (+ 0 (div ?x441 12))) 100) 0) true))))
 (let (($x855 (or $x883 (= (mod (+ ?x611 (+ 0 (div ?x441 12))) 400) 0))))
 (let ((?x929 (ite (= ?x443 2) (ite $x855 29 28) ?x926)))
 (let ((?x888 (ite (> 1 ?x819) 1 (ite (> ?x819 ?x929) ?x929 ?x819))))
 (let ((?x882 (ite (> 1 ?x888) 1 (ite (> ?x888 ?x929) ?x929 ?x888))))
 (let ((?x685 (ite (= 2 ?x443) (ite $x855 31 31) (ite (= 1 ?x443) (ite $x855 0 0) 0))))
 (let ((?x642 (ite (= 4 ?x443) (ite $x855 91 90) (ite (= 3 ?x443) (ite $x855 60 59) ?x685))))
 (let ((?x650 (ite (= 6 ?x443) (ite $x855 152 151) (ite (= 5 ?x443) (ite $x855 121 120) ?x642))))
 (let ((?x690 (ite (= 8 ?x443) (ite $x855 213 212) (ite (= 7 ?x443) (ite $x855 182 181) ?x650))))
 (let ((?x695 (ite (= 10 ?x443) (ite $x855 274 273) (ite (= 9 ?x443) (ite $x855 244 243) ?x690))))
 (let ((?x860 (ite (= 12 ?x443) (ite $x855 335 334) (ite (= 11 ?x443) (ite $x855 305 304) ?x695))))
 (let ((?x878 (+ (* 365 (- (+ ?x611 (+ 0 (div ?x441 12))) 1)) (div (- (+ ?x611 (+ 0 (div ?x441 12))) 1) 4))))
 (let ((?x691 (+ (- ?x878 (div (- (+ ?x611 (+ 0 (div ?x441 12))) 1) 100)) (div (- (+ ?x611 (+ 0 (div ?x441 12))) 1) 400))))
 (let ((?x857 (+ (+ (- (+ (+ ?x691 ?x860) (- ?x882 1)) 730179) 0) 730179)))
 (let ((?x869 (mod ?x857 146097)))
 (let ((?x871 (div ?x869 36524)))
 (let ((?x875 (ite (<= 4 ?x871) 3 ?x871)))
 (let ((?x879 (- ?x869 (* ?x875 36524))))
 (let ((?x553 (mod ?x879 1461)))
 (let ((?x922 (div ?x553 365)))
 (let ((?x919 (ite (<= 4 ?x922) 3 ?x922)))
 (let ((?x910 (+ (+ (* (div ?x857 146097) 400) (* ?x875 100)) (* (div ?x879 1461) 4))))
 (let ((?x892 (+ (+ ?x910 ?x919) 1)))
 (let (($x901 (or (and (= (mod ?x892 4) 0) (and (distinct (mod ?x892 100) 0) true)) (= (mod ?x892 400) 0))))
 (let ((?x916 (- ?x553 (* ?x919 365))))
 (let ((?x890 (ite $x901 31 31)))
 (let (($x471 (>= ?x916 ?x890)))
 (let ((?x501 (ite $x471 (+ (- ?x916 ?x890) 1) (+ (- ?x916 (ite $x901 0 0)) 1))))
 (let ((?x891 (ite $x901 60 59)))
 (let (($x469 (>= ?x916 ?x891)))
 (let ((?x608 (ite $x901 91 90)))
 (let (($x499 (>= ?x916 ?x608)))
 (let ((?x458 (ite $x499 (+ (- ?x916 ?x608) 1) (ite $x469 (+ (- ?x916 ?x891) 1) ?x501))))
 (let ((?x806 (ite $x901 121 120)))
 (let (($x496 (>= ?x916 ?x806)))
 (let ((?x615 (ite $x901 152 151)))
 (let (($x495 (>= ?x916 ?x615)))
 (let ((?x898 (ite $x495 (+ (- ?x916 ?x615) 1) (ite $x496 (+ (- ?x916 ?x806) 1) ?x458))))
 (let ((?x447 (ite $x901 182 181)))
 (let (($x494 (>= ?x916 ?x447)))
 (let ((?x448 (ite $x901 213 212)))
 (let (($x498 (>= ?x916 ?x448)))
 (let ((?x906 (ite $x498 (+ (- ?x916 ?x448) 1) (ite $x494 (+ (- ?x916 ?x447) 1) ?x898))))
 (let ((?x454 (ite $x901 244 243)))
 (let (($x497 (>= ?x916 ?x454)))
 (let ((?x455 (ite $x901 274 273)))
 (let (($x505 (>= ?x916 ?x455)))
 (let ((?x781 (ite $x505 (+ (- ?x916 ?x455) 1) (ite $x497 (+ (- ?x916 ?x454) 1) ?x906))))
 (let ((?x464 (ite $x901 305 304)))
 (let (($x504 (>= ?x916 ?x464)))
 (let ((?x456 (ite $x901 335 334)))
 (let (($x500 (>= ?x916 ?x456)))
 (let ((?x934 (ite $x500 (+ (- ?x916 ?x456) 1) (ite $x504 (+ (- ?x916 ?x464) 1) ?x781))))
 (let (($x591 (= 0 0)))
 (let ((?x652 (ite $x591 ?x882 ?x934)))
 (= x_plus_day ?x652))))))))))))))))))))))))))))))))))))))))))))))))))))))))))))))))))))))))))))))))))))))))))))))))))))))))))
(assert
 (>= x_plus_1_epoch (- 36525)))
(assert
 (<= x_plus_1_epoch 36523))
(assert
 (= x_plus_1_epoch (+ x_epoch 31)))
(assert
 (not (<= x_plus_epoch x_plus_1_epoch)))
(check-sat)
